sat
(
  (define-fun K () String
    "a")
  (define-fun P () String
    "")
  (define-fun S () String
    "aabaa")
  (define-fun G () String
    "")
  (define-fun J () String
    "ab")
  (define-fun Q () String
    "")
  (define-fun M () String
    "")
  (define-fun L () String
    "")
  (define-fun H () String
    "")
  (define-fun R () String
    "a")
)
